(set-info :smt-lib-version 2.6)
(set-logic QF_FP)
(set-info :source |Random FP created by PyMPF|)
(set-info :license |https://www.gnu.org/licenses/gpl-3.0.html|)
(set-info :category random)
(set-info :status unsat)
(declare-const x Float32)
(assert (= x ((_ to_fp 8 24) #x48287DE0)))
;; x should be Float32(0x48287DE0 [Rational(345071, 2), 172535.500000])

(declare-const y Float32)
(assert (= y ((_ to_fp 8 24) #x00000000)))
;; y should be Float32(+zero)

(declare-const result Float32)
(assert (= result (fp.sub RTP x y)))
(assert (not (= result (fp #b0 #b10010000 #b01010000111110111100000))))
(check-sat)
(exit)
